Ga16 O24
1.0
  12.4658884548179394    0.0000000000000000    0.0141280578604466
   0.0000000000000000    6.1732635625122567    0.0000000000000000
  -1.3985248036041633    0.0000000000000000    5.7142389128552873
Ga O
16 24
direct
   0.6584402729822924    0.0000000000000000    0.3141279677227243 Ga
   0.6584402729822924    0.5000000000000000    0.3141279677227243 Ga
   0.8415597270177079    0.2500000000000000    0.6858720322772759 Ga
   0.8415597270177079    0.7500000000000000    0.6858720322772759 Ga
   0.5899728494232130    0.2500000000000000    0.7948341771804988 Ga
   0.5899728494232130    0.7500000000000000    0.7948341771804988 Ga
   0.9100271505767871    0.0000000000000000    0.2051657928194990 Ga
   0.9100271505767871    0.5000000000000000    0.2051657928194990 Ga
   0.1584403029822949    0.2500000000000000    0.3141279677227243 Ga
   0.1584403029822949    0.7500000000000000    0.3141279677227243 Ga
   0.3415596970177051    0.0000000000000000    0.6858720322772759 Ga
   0.3415596970177051    0.5000000000000000    0.6858720322772759 Ga
   0.0899728194232176    0.0000000000000000    0.7948341771804986 Ga
   0.0899728194232176    0.5000000000000000    0.7948341771804986 Ga
   0.4100271805767824    0.2500000000000000    0.2051657928194990 Ga
   0.4100271805767824    0.7500000000000000    0.2051657928194990 Ga
   0.9959323286599011    0.2500000000000000    0.2563977084126972 O
   0.9959323286599011    0.7500000000000000    0.2563977084126972 O
   0.5040676713400991    0.0000000000000000    0.7436022915873033 O
   0.5040676713400991    0.5000000000000000    0.7436022915873033 O
   0.6735658007296157    0.2500000000000000    0.5640831746705970 O
   0.6735658007296157    0.7500000000000000    0.5640831746705970 O
   0.8264341992703844    0.0000000000000000    0.4359168253294029 O
   0.8264341992703844    0.5000000000000000    0.4359168253294029 O
   0.8362974919073042    0.0000000000000000    0.8909560361962712 O
   0.8362974919073042    0.5000000000000000    0.8909560361962712 O
   0.6637025080926960    0.2500000000000000    0.1090439418037273 O
   0.6637025080926960    0.7500000000000000    0.1090439418037273 O
   0.4959323286599012    0.0000000000000000    0.2563977084126972 O
   0.4959323286599012    0.5000000000000000    0.2563977084126972 O
   0.0040676813400997    0.2500000000000000    0.7436022915873032 O
   0.0040676813400997    0.7500000000000000    0.7436022915873032 O
   0.1735657857296179    0.0000000000000000    0.5640831746705969 O
   0.1735657857296179    0.5000000000000000    0.5640831746705969 O
   0.3264342292703798    0.2500000000000000    0.4359168253294030 O
   0.3264342292703798    0.7500000000000000    0.4359168253294030 O
   0.3362975219073066    0.2500000000000000    0.8909560361962712 O
   0.3362975219073066    0.7500000000000000    0.8909560361962712 O
   0.1637024780926935    0.0000000000000000    0.1090439418037273 O
   0.1637024780926935    0.5000000000000000    0.1090439418037273 O
